;; sequence(s): A28918
;; terms: 3 252 113400 141523200 373621248000 1788898535424000 14050009097220096000 168600109166641152000000 2931618698189556350976000000 70886540122223472566599680000000 2306506242496907350372020387840000000 98312522080188178902256997011292160000000
;; small program: (loop((2 + y) * x, 2 + ((x + x) + x), 1) div 2) div (2 + ((x + x) + x))
;; fast program: (loop((2 + y) * x, 2 + ((x + x) + x), 1) div (2 + ((x + x) + x))) div 2
(set-logic UFNIA)
(define-fun divf ((a Int) (b Int)) Int (ite (< 0 b) (div a b) (div (- a) (- b))))
(declare-fun f0 (Int Int) Int)
(declare-fun g0 (Int) Int)
(declare-fun h0 () Int)
(declare-fun u0 (Int Int) Int)
(declare-fun v0 (Int) Int)
(declare-fun small (Int) Int)
(declare-fun f1 (Int Int) Int)
(declare-fun g1 (Int) Int)
(declare-fun h1 () Int)
(declare-fun u1 (Int Int) Int)
(declare-fun v1 (Int) Int)
(declare-fun fast (Int) Int)
(assert (forall ((x Int) (y Int)) (= (f0 x y) (* (+ 2 y) x))))
(assert (forall ((x Int)) (= (g0 x) (+ 2 (+ (+ x x) x)))))
(assert (= h0 1))
(assert (forall ((x Int) (y Int)) (= (u0 x y) (ite (<= x 0) y (f0 (u0 (- x 1) y) x)))))
(assert (forall ((x Int)) (= (v0 x) (u0 (g0 x) h0))))
(assert (forall ((x Int)) (= (small x) (divf (divf (v0 x) 2) (+ 2 (+ (+ x x) x))))))
(assert (forall ((x Int) (y Int)) (= (f1 x y) (* (+ 2 y) x))))
(assert (forall ((x Int)) (= (g1 x) (+ 2 (+ (+ x x) x)))))
(assert (= h1 1))
(assert (forall ((x Int) (y Int)) (= (u1 x y) (ite (<= x 0) y (f1 (u1 (- x 1) y) x)))))
(assert (forall ((x Int)) (= (v1 x) (u1 (g1 x) h1))))
(assert (forall ((x Int)) (= (fast x) (divf (divf (v1 x) (+ 2 (+ (+ x x) x))) 2))))
(assert (exists ((c Int)) (and (>= c 0) (not (= (small c) (fast c))))))
(check-sat)
